LengthSchedulingHorizon=3021;
nAttributes=5;
SetupCosts=[[0, 0, 0, 0, 0], [4, 9, 21, 11, 6], [5, 17, 7, 23, 20], [4, 5, 22, 14, 21], [21, 14, 14, 22, 11], [19, 14, 14, 7, 3]];
SetupTimes=[[0, 0, 0, 0, 0], [4, 12, 7, 4, 15], [4, 9, 11, 19, 0], [4, 16, 21, 20, 7], [16, 2, 16, 4, 20], [14, 8, 17, 19, 20]];
nMachines=5;
MinCap=[0, 0, 0, 0, 0];
MaxCap=[6, 13, 8, 7, 19];

initState=[1, 3, 3, 5, 2];
nShifts=5;
ShiftStartTimes = [[0, 0, 2121, 2468, 2970], [116, 995, 1891, 2419, 2736], [239, 428, 830, 1968, 2654], [258, 1364, 1660, 1926, 1970], [0, 0, 0, 0, 1953]];
ShiftEndTimes = [[0, 0, 2389, 2598, 3003], [865, 1662, 2172, 2607, 2863], [398, 805, 1707, 2404, 2832], [627, 1580, 1736, 1948, 2689], [0, 0, 0, 0, 2408]];
nJobs=10;
EligibleMachines = [{1, 2, 3, 4}, {1, 4, 5}, {1, 2, 4}, {1, 4, 5}, {1, 2, 3}, {2, 4}, {1, 3, 4, 5}, {1, 2, 4, 5}, {2, 3, 4}, {1, 3, 5}];
EarliestStart=[88, 3, 99, 211, 122, 139, 81, 59, 229, 190];
LatestEnd=[446, 146, 101, 225, 154, 497, 234, 156, 232, 359];
MinTime=[95, 40, 1, 9, 10, 100, 94, 91, 2, 46];
MaxTime=[100, 100, 100, 100, 100, 100, 100, 100, 100, 100];
JobSize=[1, 1, 4, 3, 2, 2, 5, 1, 2, 4];
Attribute=[2, 1, 5, 5, 5, 2, 1, 2, 3, 1];

upper_bound_integer_objective=169050;
mult_factor_total_runtime=138;
mult_factor_finished_toolate=6762;
mult_factor_total_setuptimes=0;
mult_factor_total_setupcosts=147;
running_time_bound=488;
min_duration=1;
max_duration=100;
max_setup_time=21;
max_setup_cost=23;
